Si conventional cubic | displaced max_step=0.5 seed=1
1.0
    5.4309497075573780  -0.0001071173855186   0.0001019907600285
    0.0001071229574679   5.4309498048272680   0.0000419030623093
   -0.0001019812595862  -0.0000419023593908   5.4309498184796823
  Si
  8
Direct
    0.9977269503690660   0.0179565450500697   0.0064961545675772
    0.9977269134692904   0.5179565547279433   0.5064961757174766
    0.4977269263817979   0.0179565527766626   0.5064961543289194
    0.4977269374565590   0.5179565430987890   0.0064961754788185
    0.2477269173048142   0.2679565601022976   0.2564961715325174
    0.2477269481325877   0.7679565361150298   0.7564961586200104
    0.7477269269826877   0.2679565358763724   0.7564961695812383
    0.7477269384547135   0.7679565598636400   0.2564961566687314
