Si primitive
1.0
   -0.0000067968299949   2.7154932031700048   2.7154932031700048
    2.7154932031700048  -0.0000067968299949   2.7154932031700048
    2.7154932031700048   2.7154932031700043  -0.0000067968299949
  Si
  2
Direct
    0.0000006796624933   0.0000006796624933   0.0000006796624933
    0.2499993203375066   0.2499993203375067   0.2499993203375066
