Si 4x4x4 conventional cubic supercell | displaced max_step=0.2 seed=None
1.0
   21.7240000000000002   0.0000000000000000   0.0000000000000000
    0.0000000000000000  21.7240000000000002   0.0000000000000000
    0.0000000000000000   0.0000000000000000  21.7240000000000002
  Si
  512
Direct
    0.9973383914487430   0.0058034476624833   0.0004549267422341
    0.9971311058463921   0.1321755939603926   0.1250860696152074
    0.1250454538171905   0.0018299471082103   0.1252901643462651
    0.1218068967458421   0.1270435548199505   0.9961577581985319
    0.0687619631463304   0.0589846099915990   0.0584309426725382
    0.0656149230427124   0.1899576651306686   0.1924804203405999
    0.1951466183008867   0.0632394512369397   0.1882509206347460
    0.1853845927664287   0.1904273751206122   0.0631136718478744
    0.9989349486968108   0.0070588565370624   0.2533345797483672
    0.0001361298727550   0.1224549451852059   0.3763048888870280
    0.1220860408502443   0.9970219825198179   0.3726395436779091
    0.1211248475491598   0.1230497797135906   0.2538487201067306
    0.0685919375278418   0.0580652623859383   0.3098601248841902
    0.0618088507987898   0.1829589973801958   0.4342345284456243
    0.1919562712080886   0.0625372527414648   0.4357956779905909
    0.1901835115251243   0.1853791405032019   0.3137104413106786
    0.0000257436676599   0.0019017686506434   0.4994174901814784
    0.0038529599709443   0.1258780188790991   0.6204151040594309
    0.1238191150297080   0.0047298620446039   0.6206901755317685
    0.1224869890415201   0.1240354686499255   0.5009145885620534
    0.0619760641565739   0.0626000717969687   0.5632450717154929
    0.0538650912234924   0.1892253612882866   0.6889697655166914
    0.1847802264477529   0.0624726873363030   0.6858496817218952
    0.1877121971675451   0.1855980022474370   0.5634504445326083
    0.9995875724281333   0.9998988527178426   0.7497933387755730
    0.9993247370975703   0.1261028753793095   0.8744165770157944
    0.1289535063855516   0.0040122218004625   0.8802708497744786
    0.1316852372292227   0.1282324228239370   0.7477615694070894
    0.0626888270223479   0.0627422871745016   0.8128254851295063
    0.0603334339642413   0.1898207801432847   0.9368820285263176
    0.1876717583082917   0.0638304292162280   0.9340943101859460
    0.1865610076357699   0.1877592667106060   0.8144454943761166
    0.0012550450667489   0.2519346328641467   0.0009089657633165
    0.9998936869327958   0.3747983557143035   0.1253890959401199
    0.1267549894891253   0.2458144124503041   0.1215220123573526
    0.1252087535482133   0.3751573051577591   0.0000778315822169
    0.0677166879882652   0.3144053039683355   0.0556359264790118
    0.0635059153333116   0.4369591127103085   0.1867333556215368
    0.1889110106875388   0.3066765710751735   0.1911888285199221
    0.1877101591835842   0.4376333800483620   0.0624877587460012
    0.0010539251113139   0.2542478273424565   0.2500494764533747
    0.9971801047265635   0.3745375765682590   0.3831472596012847
    0.1212552815597257   0.2551239813542145   0.3719344419063867
    0.1267751302275194   0.3713852526116356   0.2525484940794955
    0.0629313894417751   0.3108698674906222   0.3137353878656934
    0.0662617744670825   0.4394301792699253   0.4356863127739737
    0.1859328204264071   0.3120132022174025   0.4361228170410568
    0.1832996604872121   0.4383865955493393   0.3150328327719140
    0.9932013952007543   0.2442499587556022   0.4999137167952935
    0.9972417707582822   0.3740135347408764   0.6200013004595536
    0.1265374830228628   0.2536557203002571   0.6288062538774544
    0.1292114165250137   0.3800145397180158   0.5016796852430101
    0.0603096842126508   0.3124822413956138   0.5582617194174170
    0.0699629832121284   0.4349281660689456   0.6917821089698244
    0.1891246568911204   0.3108171474377256   0.6876789287703972
    0.1859887232557687   0.4308655840496425   0.5577311329955448
    0.0026047031150639   0.2452615277660477   0.7476673127832847
    0.0016113143677296   0.3802586387357650   0.8685448862115273
    0.1308542913720168   0.2526438178080558   0.8693872735816374
    0.1256596414938964   0.3693332262455626   0.7434272503644538
    0.0646658770503484   0.3149901608671992   0.8116637292063282
    0.0650605742710170   0.4396099096234786   0.9404663432919244
    0.1817728404056140   0.3142814560865014   0.9425540503001854
    0.1873226351845548   0.4353702957299854   0.8125721939391759
    0.0020337516453701   0.4967099216955356   0.0005941552853788
    0.9959862584130776   0.6245111935227126   0.1170525034423761
    0.1290997068388372   0.4978234794702498   0.1194840774481933
    0.1294581751893872   0.6206196790718759   0.0017757606251128
    0.0600071110192739   0.5646930891434979   0.0637709377195874
    0.0669803123334743   0.6803452876411743   0.1883297783477866
    0.1915988164046869   0.5683195415098656   0.1919303030440409
    0.1887108005387183   0.6913842045592835   0.0569389024464889
    0.9997594549480353   0.5012450744853576   0.2503990086907247
    0.9960522931974353   0.6201359067654476   0.3726795397189382
    0.1253289501754929   0.5000954094463653   0.3745661104462452
    0.1305468836891090   0.6192497221144271   0.2489110943218344
    0.0626135597797511   0.5625043548892065   0.3121067479404472
    0.0656357758174333   0.6852732514444659   0.4376094904207591
    0.1870564310865676   0.5613404168422724   0.4411941417326864
    0.1870791489867469   0.6870224811535819   0.3102813713587488
    0.9958734777805694   0.4978977746227854   0.4984952955707854
    0.0047060567982277   0.6267018322833832   0.6222034764072355
    0.1249561859705777   0.5001173386351060   0.6248101550985791
    0.1226469232936983   0.6281903760625024   0.4986313719717063
    0.0548696982211034   0.5630276441792289   0.5623551830001113
    0.0613767903862778   0.6806897859673344   0.6893675065566968
    0.1856320434326353   0.5602966725895407   0.6844069983211012
    0.1928898585964586   0.6866036397042762   0.5597335426389100
    0.9973620202054961   0.4989464692198100   0.7498216869375878
    0.9949847374068185   0.6286699276159016   0.8735190845936831
    0.1215924076060372   0.4957178012566806   0.8680414981797734
    0.1241897550514383   0.6248413998160286   0.7499415872845280
    0.0649604333457215   0.5609318765844478   0.8156583144094512
    0.0663482906928166   0.6849359044855883   0.9408081297719844
    0.1860641999295340   0.5616085780235839   0.9357463283410522
    0.1873039106281580   0.6914416364029867   0.8053825432534716
    0.9961700142843245   0.7543635721923841   0.0013959322524604
    0.9973354173305747   0.8717699470359004   0.1235606892461154
    0.1272806375332461   0.7525327527763402   0.1271823177928947
    0.1219737790953875   0.8766579598064311   0.9967483475786603
    0.0654029694239689   0.8142544529411530   0.0642536355404336
    0.0589816092895560   0.9325164987174528   0.1850390761347040
    0.1826064291261709   0.8173887500145013   0.1849915976313880
    0.1852308222074129   0.9390336250086493   0.0545888110396797
    0.9993150871614996   0.7505629323013355   0.2498067770721157
    0.9946051778248041   0.8751559730765380   0.3783793811481893
    0.1224460028086004   0.7519007215241226   0.3759329162891734
    0.1275713741615177   0.8735857775388027   0.2555496104679298
    0.0686244525774249   0.8111286147617668   0.3168674362350540
    0.0597961357344634   0.9401902205599597   0.4355704372570266
    0.1862060024632011   0.8154071960217107   0.4386395874062399
    0.1936185583517347   0.9350502675608956   0.3128511674240372
    0.9948227320328210   0.7432535392016928   0.5003645555250654
    0.9999869614282806   0.8741100361344679   0.6238867286966945
    0.1287364837338692   0.7525001181875347   0.6261062068425155
    0.1252166441671761   0.8749540324862467   0.4999239781580392
    0.0555608251779324   0.8121034541668705   0.5644362990289304
    0.0626724393409719   0.9374245388684517   0.6862617000396045
    0.1908980818864420   0.8137485984037638   0.6916970449748141
    0.1887467858120762   0.9329102694476679   0.5600388100458817
    0.9971588631592352   0.7421383209018426   0.7507296579366277
    0.9934589376526264   0.8769393220398203   0.8797730127970943
    0.1236798345385638   0.7497945362332241   0.8770605082833288
    0.1249090788735022   0.8741318047240317   0.7489474979484125
    0.0625025691786424   0.8144330705119357   0.8148466125068995
    0.0554272202483240   0.9393580628055140   0.9377734836414807
    0.1877316390403673   0.8115374125586426   0.9409196079615403
    0.1836279171092540   0.9354620286732324   0.8083464358252245
    0.2438338922549813   0.0016403563998163   0.0003460506909977
    0.2493681608843977   0.1239601045487958   0.1274541443052589
    0.3774731200676079   0.9981682712910905   0.1237472644384947
    0.3727646775224420   0.1217962298358514   0.9973265305491446
    0.3144791639963186   0.0599486915407217   0.0639549171084087
    0.3129407006974794   0.1867387399066297   0.1878501872902641
    0.4376560488489642   0.0635232130891565   0.1888227695218793
    0.4404560510869135   0.1882675410249751   0.0598557654429346
    0.2488503291474713   0.9947209868367591   0.2515309668115384
    0.2434099829992650   0.1258108253212956   0.3711241878220962
    0.3748578919440274   0.9993626502401971   0.3777482277523869
    0.3735544418197737   0.1257646407469888   0.2495909282458956
    0.3128610806705636   0.0588230163444342   0.3115388695890240
    0.3119879999106127   0.1891981204032263   0.4380410626390474
    0.4395415962239443   0.0617359631411630   0.4458444911325445
    0.4375896026466390   0.1889353109079807   0.3131325411363671
    0.2484484259510649   0.0003722272202408   0.5027897018504144
    0.2471032580889408   0.1256360938097152   0.6256034532821364
    0.3725382955409304   0.9945310547308139   0.6319018585338050
    0.3742394810016797   0.1240334919242460   0.4977876726607547
    0.3123249598935790   0.0615981175240049   0.5608833419977779
    0.3096652113783236   0.1898064952628041   0.6879374920950524
    0.4379737913080759   0.0645878019839869   0.6903220533800302
    0.4361346168202156   0.1921951090166846   0.5565728747053811
    0.2510398535518729   0.9987262631926099   0.7513081633408307
    0.2500913975485516   0.1248914246679105   0.8763422349237918
    0.3794084259310128   0.0056539662952070   0.8770583672076573
    0.3786132363677889   0.1255554244935579   0.7466921261537309
    0.3143611466515165   0.0619151677519059   0.8137509463163579
    0.3121717566368375   0.1912271081795457   0.9406120737454311
    0.4375105820854153   0.0621654048563197   0.9368098317346775
    0.4334166683764287   0.1948716616649215   0.8090323995928786
    0.2508259424208768   0.2472678634073835   0.9959433156727271
    0.2470924025976309   0.3736561978842894   0.1265938285757754
    0.3817873255503038   0.2499090975141439   0.1247215913227400
    0.3718866613063867   0.3752679308208166   0.0043869512567856
    0.3145623560645865   0.3067592114184355   0.0581123271308586
    0.3143832821490582   0.4421815100886042   0.1806843523063255
    0.4370940940608981   0.3125886306624783   0.1875735704625038
    0.4366668453606860   0.4367320118572443   0.0628076463291703
    0.2521691790344927   0.2482279130194774   0.2513390152734015
    0.2467164774003222   0.3739513011213322   0.3729009010733164
    0.3753376847817451   0.2495245380161971   0.3756190254121508
    0.3774816458271238   0.3755586664728749   0.2502295719799178
    0.3072534506613956   0.3124011453777094   0.3199454052802407
    0.3142620907086315   0.4369430739563976   0.4391330405226086
    0.4422181118617537   0.3196267319841769   0.4371331242731767
    0.4430442699583899   0.4372266027533825   0.3076889579372066
    0.2526932697311774   0.2502438246936428   0.5001502545506804
    0.2460668132228713   0.3746965027899120   0.6268015368058993
    0.3786139562983035   0.2493634131949288   0.6234675648480033
    0.3753980324758858   0.3748089996872609   0.5030336094690844
    0.3115346501658478   0.3121119161233241   0.5634842185771111
    0.3126053883777996   0.4375521217058146   0.6877461141905760
    0.4364073060634254   0.3151487663303888   0.6874159444501624
    0.4374737972366417   0.4374730347575275   0.5624520986682698
    0.2500679893865855   0.2498888789231061   0.7504862483237338
    0.2492876954858748   0.3729915638111220   0.8739925979180320
    0.3743579752744215   0.2479667392152085   0.8744536151204042
    0.3754376267869719   0.3760220190184353   0.7499266960228181
    0.3138998432206336   0.3089465648620186   0.8156095129454050
    0.3132178084618528   0.4388570979105936   0.9335964222809408
    0.4332770065975284   0.3106019625376818   0.9395736322474960
    0.4360247310381047   0.4380054998773122   0.8170286842315475
    0.2504008453444750   0.5023412645779282   0.0018446579242577
    0.2502005119833091   0.6269285213965470   0.1250131523885478
    0.3793704494149136   0.4942239170882063   0.1277762694944099
    0.3751768935370429   0.6263235694864208   0.0026947912133836
    0.3140629872599779   0.5650853187610043   0.0618923999456272
    0.3130797917852004   0.6881360516632498   0.1882628708824384
    0.4392332670154523   0.5693080121920895   0.1877149657924811
    0.4405401968275124   0.6907895544577188   0.0613331537455291
    0.2477074172717289   0.4958368732752180   0.2538814939108174
    0.2487853059479554   0.6221964437062339   0.3727413070176485
    0.3787271846065492   0.4992385828714556   0.3739914079472757
    0.3711790947130051   0.6263971597446284   0.2520252292318070
    0.3131599035602750   0.5629778410681324   0.3121942067658973
    0.3064431200567572   0.6921524410308784   0.4384973846126136
    0.4377876279984239   0.5630835338928467   0.4362735278532129
    0.4394516964009897   0.6881664393115758   0.3100690295746790
    0.2420045356837325   0.5031381318990995   0.5027265070050625
    0.2505184090414909   0.6202455738901855   0.6221414477842538
    0.3728912096923417   0.4935568540282320   0.6277902165917820
    0.3745979109058623   0.6235520247865521   0.5010443675903448
    0.3090960676244220   0.5673673217231547   0.5624494627683302
    0.3128925372836144   0.6890629563620430   0.6881529042608163
    0.4426829053757045   0.5610998521182182   0.6920802504530619
    0.4385865860790745   0.6873812848418641   0.5641521275285871
    0.2501429130962052   0.5059054473863712   0.7477433389745255
    0.2475009017224823   0.6202164150705012   0.8803229445585410
    0.3745637029341468   0.5041110163838078   0.8745965903767358
    0.3748537026613235   0.6225696464734810   0.7494501863699236
    0.3204167844525450   0.5598512920856173   0.8130705815934867
    0.3124331123889501   0.6863292929828747   0.9374377406316049
    0.4377781195753512   0.5628266141785412   0.9388000130733805
    0.4400311790807279   0.6827644306181820   0.8112608358303206
    0.2479302476983098   0.7492407787711227   0.0001233770841275
    0.2434191483961312   0.8729864438313555   0.1250247941506418
    0.3774212659028063   0.7508774960743246   0.1316902872281913
    0.3820264357473630   0.8767026433720173   0.0018301589071265
    0.3129881383216171   0.8149816502850272   0.0625415609361733
    0.3125147606757646   0.9374143031199718   0.1870366335024635
    0.4402274921388743   0.8097732040448135   0.1903308684045914
    0.4391018626179630   0.9301217835328671   0.0573595983948962
    0.2503699837286086   0.7516248463768723   0.2496912260235590
    0.2474757082942878   0.8748470766781239   0.3784388999865343
    0.3765772605627350   0.7493804660789186   0.3730836238581887
    0.3797016531713665   0.8734594868750523   0.2466788509246514
    0.3099346115526113   0.8072255149322736   0.3120224334548749
    0.3185163807744512   0.9381931245770982   0.4367018815551715
    0.4342797555102327   0.8089043900675720   0.4402749436281606
    0.4368740471111455   0.9378331973053876   0.3124745522931998
    0.2513548209599820   0.7546079135917312   0.4935356379268896
    0.2460244072053445   0.8775668152979066   0.6328664287898090
    0.3752339047769222   0.7535602735069288   0.6174849144943277
    0.3756296536290097   0.8752897837156050   0.4992482246774719
    0.3056823302712369   0.8103896287806731   0.5592435409631944
    0.3124037234401101   0.9375372915002114   0.6875438075548851
    0.4402338167414453   0.8133260995095112   0.6816648419319821
    0.4402570342482538   0.9391721397908712   0.5564520268459390
    0.2503176831045186   0.7472765338890063   0.7444891467887640
    0.2498950063631508   0.8748492777661357   0.8749615622855493
    0.3685557592323315   0.7530502876084101   0.8759912020873932
    0.3793536717870529   0.8770966301596674   0.7482862833000350
    0.3117345286350819   0.8124257221919071   0.8133240119986769
    0.3147393388552723   0.9389315277321634   0.9404306524275092
    0.4317334139859340   0.8135047285051736   0.9359981285311344
    0.4327352592518413   0.9379199445372385   0.8127565054052246
    0.4985030016846618   0.0014104394726665   0.9994654655853530
    0.5033092017537310   0.1296084029883454   0.1229518380137224
    0.6183460204035375   0.0026984319877562   0.1210856806620338
    0.6244548597460525   0.1202085968631770   0.9948462189509164
    0.5599966190567606   0.0592596292995388   0.0637915507373180
    0.5636474178994034   0.1811582378612719   0.1823721786549284
    0.6860932898774139   0.0678973680885172   0.1901636576737655
    0.6861067977791028   0.1889679167488931   0.0643966192240756
    0.4931599938547955   0.9981900698838915   0.2464567650308103
    0.4930014463098794   0.1266011978526309   0.3778691821867831
    0.6265869589633347   0.9986644481845200   0.3756802123130377
    0.6245119153642708   0.1245045671502573   0.2493936109158671
    0.5576127755519834   0.0582399696903904   0.3064654795409067
    0.5624856867740440   0.1874560109971029   0.4374662175453709
    0.6875015004214893   0.0624856738028804   0.4374972045722820
    0.6817409624027422   0.1818396674959275   0.3160592359616419
    0.5009321330071204   0.0009704350451948   0.4988572997437012
    0.5016431148903455   0.1243573868869327   0.6290028572897621
    0.6213102242707129   0.9967052733242842   0.6276356249019894
    0.6249120318334992   0.1244169406745493   0.5001976052571946
    0.5620007514183338   0.0629764922570204   0.5624868494447689
    0.5598290372714884   0.1877029657671036   0.6848671819983060
    0.6869565894301959   0.0595992616472117   0.6835044625915676
    0.6855511005931624   0.1861611157384648   0.5599672324563031
    0.5007227411546162   0.9989605360133361   0.7515970825120535
    0.5022849845073681   0.1267269299004905   0.8771850314373566
    0.6221778145964704   0.9986803402321818   0.8745882052358966
    0.6253149136951374   0.1248830460690216   0.7497152024313291
    0.5596047231333977   0.0606848699792406   0.8121476095013103
    0.5591252249270147   0.1842126563856978   0.9337702423262765
    0.6875913922277388   0.0624122911053716   0.9368251498053597
    0.6880359029768437   0.1868841333993023   0.8137308183808860
    0.5018483762914826   0.2453874175392230   0.0031389211612778
    0.4937299669908748   0.3714749918807077   0.1264185966210394
    0.6249547462629290   0.2500742556178812   0.1250297370428776
    0.6217207693658964   0.3814189483606878   0.0004143939850826
    0.5588680004961860   0.3111126432478066   0.0616174328534438
    0.5622608932112875   0.4371206679781077   0.1870306142081401
    0.6922034329247563   0.3132702643772833   0.1813137773971245
    0.6868980987588906   0.4395845754752174   0.0596009696212028
    0.4999510687941480   0.2500236545694842   0.2499923895321910
    0.5010988765301115   0.3749890807473523   0.3772327188684938
    0.6248744345478150   0.2499588777517207   0.3750235386625642
    0.6186391838156547   0.3746641304219883   0.2566202822726499
    0.5622560411523927   0.3122284324617146   0.3173552773092211
    0.5627666495460878   0.4375309929767665   0.4373304189524061
    0.6887766449200822   0.3094178884746884   0.4302722513081338
    0.6874956699910099   0.4378066609068233   0.3124757712559760
    0.4975619603000630   0.2501825006357868   0.4974474112340940
    0.5033727426979543   0.3756133051049744   0.6282170157933017
    0.6256700738797231   0.2450692071635807   0.6273693140031396
    0.6239607932711434   0.3764104076497720   0.4984261235189491
    0.5616935268527193   0.3154070097669348   0.5615243250013163
    0.5610278034975540   0.4371514583783713   0.6867628754038670
    0.6900919169634842   0.3146756303651430   0.6896398462870759
    0.6858259802148460   0.4429798665289958   0.5630801151122816
    0.4967366433944145   0.2541898447569200   0.7561104636857984
    0.4993137683019669   0.3739043555281669   0.8734667127383541
    0.6256363647829907   0.2504307593523106   0.8745390108075852
    0.6222220932802243   0.3728220146124063   0.7453440333070928
    0.5607562628873939   0.3113640821982905   0.8125782044528915
    0.5636494819720542   0.4375896443669391   0.9362221170288854
    0.6882929850160708   0.3111110773288218   0.9433717806226187
    0.6868995614821549   0.4417347974600043   0.8092883903596443
    0.4990024755719232   0.4986863922330289   0.9964645391472883
    0.5000676617695903   0.6246972594853536   0.1255299001981377
    0.6236607614433268   0.5015836367418716   0.1215469541829973
    0.6224599615508610   0.6291472757591948   0.9990730375723306
    0.5623917040488464   0.5647035137982434   0.0635189963374713
    0.5577542755334592   0.6892043302258445   0.1873863144333721
    0.6861475187447053   0.5675039726346666   0.1858488648143044
    0.6874557497467627   0.6886531838381111   0.0627309643406588
    0.5000948668501484   0.5054372888780450   0.2446013860736301
    0.4939777078436749   0.6201125130759820   0.3784410421963248
    0.6236225695482007   0.5010458427658832   0.3738686122874609
    0.6250120875814982   0.6250707932572204   0.2500463344654635
    0.5635284873874145   0.5559526486809041   0.3167597914503220
    0.5622267685511972   0.6880153369007965   0.4371136542887761
    0.6859142388440171   0.5611209141901103   0.4390317047974227
    0.6919766050951591   0.6919747746795794   0.3111602777338549
    0.4988607724009951   0.5004805965435186   0.5013338918035271
    0.4995641457032191   0.6233231953626810   0.6243350334512426
    0.6266082850813314   0.5010244783886848   0.6292590598282970
    0.6233805640186223   0.6279328741414432   0.5022885572508174
    0.5610870114383076   0.5648336762815076   0.5628182972148722
    0.5588020400372889   0.6871942221150782   0.6935477528575531
    0.6884357969647272   0.5627837327889320   0.6867269789323945
    0.6829739761784668   0.6944947251718705   0.5652136468262381
    0.4958146508880407   0.5025957777162793   0.7508078682952886
    0.5004818386568327   0.6240115655152241   0.8750510572167395
    0.6232274979365892   0.5041762979590465   0.8780302286549529
    0.6224093359210178   0.6280651161259754   0.7541233937158515
    0.5617809699510423   0.5623400230328437   0.8131426491011257
    0.5630560153647770   0.6869671915604578   0.9377498102652103
    0.6908789610132327   0.5663094446426592   0.9373806197568400
    0.6820609591839736   0.6850261016747041   0.8134438525252675
    0.4932785120855512   0.7543125209102413   0.9975786022281374
    0.5018613779741191   0.8735975091858281   0.1257163356348781
    0.6237609541096204   0.7487607338350268   0.1285320152478621
    0.6198083815979488   0.8752905576923162   0.9983776856065267
    0.5663960806904771   0.8175108943030195   0.0584265373287368
    0.5558099003584598   0.9393391214791937   0.1862927949145793
    0.6869543557653770   0.8130711447346429   0.1862949475066077
    0.6844312561960920   0.9408275771162882   0.0619411319352384
    0.4934014757628030   0.7484615205194337   0.2505218663812204
    0.4999064485856793   0.8755865183499207   0.3749796611868603
    0.6180318516557141   0.7511429229071519   0.3737935232601403
    0.6233133311686438   0.8763251869489930   0.2570395408703885
    0.5586491383065920   0.8169216179887133   0.3087777278653649
    0.5627471278731996   0.9317229739689253   0.4332660858551823
    0.6888738374069715   0.8124710305280989   0.4428189246840168
    0.6868741096634381   0.9384714564090364   0.3114492761386142
    0.5012641263102269   0.7502590267884844   0.4991992304335634
    0.5006560924127080   0.8740940839450448   0.6229061186029803
    0.6187462590425331   0.7503123664997452   0.6218935612285169
    0.6236212333920576   0.8688752595565650   0.4946081000476972
    0.5595195086329070   0.8112409183040677   0.5542916267985797
    0.5658977359512766   0.9398322317136877   0.6887786241915130
    0.6876801134767275   0.8114274546244982   0.6857638778276474
    0.6879339190512267   0.9327377631511863   0.5626424437393985
    0.4961241257680253   0.7513309171672627   0.7442940494704121
    0.5011167563359635   0.8748986128335309   0.8747083780999655
    0.6306318362295487   0.7458513400893313   0.8762499682208031
    0.6224490504675170   0.8739112373454939   0.7415549100056522
    0.5609873001358029   0.8123140823321370   0.8123065050363603
    0.5624846806779817   0.9375568039066531   0.9374838798817762
    0.6931009189893804   0.8115306352747840   0.9405773459632784
    0.6828536574023604   0.9383527916282247   0.8116460235800992
    0.7461132617164928   0.0013414065669495   0.0050264601450362
    0.7495740131984802   0.1314818118774725   0.1213252005949205
    0.8719632683472703   0.9951549315268432   0.1265416413775385
    0.8752020233007287   0.1251479655435051   0.0004002382161484
    0.8098728592237574   0.0626235955346496   0.0649159374684982
    0.8121439754266412   0.1846842674624051   0.1864645175229030
    0.9358260075974451   0.0674692849316121   0.1850151168641186
    0.9426445744277705   0.1903978009120029   0.0680677545867368
    0.7524493872756732   0.9963050824927829   0.2550223052888858
    0.7501329515761117   0.1251240346453941   0.3749503291770884
    0.8799580496658361   0.9966357159556872   0.3747799445461120
    0.8767440049505445   0.1199536073185960   0.2508502783790086
    0.8121593063365491   0.0630397074595605   0.3132036127352789
    0.8127109997411072   0.1826372131346667   0.4311162617271512
    0.9373778929450060   0.0623941810754492   0.4335546269406946
    0.9334253781764508   0.1881164959088849   0.3175907286341962
    0.7535673253821230   0.9997322190727080   0.5065771908424015
    0.7519224846470026   0.1284086366256638   0.6253034001472590
    0.8760872004391530   0.9978189606802014   0.6276014606363209
    0.8731112227165517   0.1237435570823173   0.5002296659956367
    0.8151709265972880   0.0617335928330461   0.5626305642557731
    0.8085783690502752   0.1880135054035218   0.6890173535402259
    0.9375808928214009   0.0617339966728800   0.6867881347113327
    0.9418814143027837   0.1847322587028221   0.5627581368443565
    0.7452867321517440   0.0014717656221518   0.7459739063301051
    0.7503535747010055   0.1261295733563223   0.8697957533979560
    0.8749196144342077   0.0063585426895419   0.8708443443831511
    0.8737088744608249   0.1259191447442823   0.7488148149465739
    0.8113431979160380   0.0671917167102244   0.8141735723434110
    0.8085395717959375   0.1890908697275703   0.9404641413193013
    0.9364440588407599   0.0640329260810314   0.9383869479911822
    0.9432320419263488   0.1898971440040625   0.8146077021723461
    0.7479683426247010   0.2418633657686260   0.0014623677376341
    0.7436745461971535   0.3779108939428686   0.1253530746212116
    0.8718910287835172   0.2474688326423895   0.1311610525686382
    0.8689759637917235   0.3698531217383685   0.0017870398770510
    0.8109824832702387   0.3155797536820388   0.0587706831129117
    0.8116239304534231   0.4394703899791960   0.1829662735247378
    0.9377143330778166   0.3120221878002231   0.1870705615544910
    0.9368930787868880   0.4365511503511421   0.0622155778945069
    0.7488189158461168   0.2439726063055431   0.2491356681351711
    0.7473302411057784   0.3696928841331821   0.3725397183345052
    0.8752741420702939   0.2505265364449498   0.3733015296198251
    0.8726074584534373   0.3724083554898447   0.2454960186668235
    0.8099076699039737   0.3109703127525772   0.3126837762455906
    0.8114728880212465   0.4405522349428815   0.4363997406925653
    0.9411536176441316   0.3146019039123546   0.4454292989324531
    0.9418601252013313   0.4401858516229246   0.3110775256620879
    0.7524134575295000   0.2496531422319422   0.4988918138515825
    0.7456764669937845   0.3773142031719877   0.6191114371475585
    0.8754406085193452   0.2517414817105669   0.6228566973644080
    0.8727986116344661   0.3773166231903294   0.4918017112209114
    0.8110389243282443   0.3120897103759114   0.5619870111535824
    0.8187575535660573   0.4365031497999629   0.6832155321020130
    0.9357613455071812   0.3132405810668431   0.6882976260103804
    0.9415164532763571   0.4431703622693978   0.5684793150329192
    0.7457616659933192   0.2451105059076905   0.7476693113529201
    0.7532117952986315   0.3688801747949187   0.8776852357779631
    0.8747513696624384   0.2518392498511288   0.8740761488155800
    0.8725675928520531   0.3674822021367478   0.7494560786787873
    0.8066723456464464   0.3089837630884081   0.8089866100111459
    0.8121817011510861   0.4370636118226061   0.9385742032644602
    0.9400259249237281   0.3123154206850299   0.9354831925327168
    0.9341979489200584   0.4367781878649438   0.8095278003574674
    0.7515393110103522   0.5003869110572342   0.9947256308433082
    0.7554345424197250   0.6221572165447814   0.1289725832511739
    0.8779806595965831   0.5023392407274445   0.1262548948540822
    0.8776138669150557   0.6291148714460085   0.9951546322324849
    0.8144352627897582   0.5618476066276774   0.0653193912402865
    0.8137405712383542   0.6852840180411600   0.1828592660136928
    0.9394479475902199   0.5624570740987410   0.1849816959549033
    0.9372955131880908   0.6873468603549338   0.0626273788569924
    0.7495635997252605   0.5020737040717670   0.2498698310569654