Si primitive
1.0
0.000000 2.715500 2.715500
2.715500 0.000000 2.715500
2.715500 2.715500 0.000000
Si
2
Direct
0.000000 0.000000 0.000000
0.250000 0.250000 0.250000