Si conventional cubic | displaced max_step=0.5 seed=1
1.0
    5.4310000000000000   0.0000000000000000   0.0000000000000000
    0.0000000000000000   5.4310000000000000   0.0000000000000000
    0.0000000000000000   0.0000000000000000   5.4310000000000000
  Si
  8
Direct
    0.0321853761250759   0.0765199612336839   0.0307746761189786
    0.9472474683039990   0.5366493105318039   0.5180694916974304
    0.4692882102724497   0.0332378610419881   0.5208522270372822
    0.5120649844944392   0.5011658484005387   0.0224255523663295
    0.2378321812463087   0.2473083743367857   0.2420343433244727
    0.3300958595260750   0.7553128437214843   0.7108838223428090
    0.7048696765715888   0.2351553352326936   0.7504699517371863
    0.7482317020115757   0.7583028531118243   0.2564592518707998
